p cnf 542 1514
13 5 6 0
14 4 -13 0
15 3 -14 0
16 2 -15 0
17 1 -16 0
-18 -2 0
-18 -3 0
18 2 3 0
-19 -4 0
-19 18 0
19 4 -18 0
-20 -5 0
-20 19 0
20 5 -19 0
-21 -6 0
-21 20 0
21 6 -20 0
-22 -1 0
-22 21 0
22 1 -21 0
-23 1 0
-23 -21 0
23 -1 21 0
-24 -22 0
-24 -23 0
24 22 23 0
-25 1 0
-25 24 0
25 -1 -24 0
-26 6 0
-26 -20 0
26 -6 20 0
-27 -21 0
-27 -26 0
27 21 26 0
-28 1 0
-28 27 0
28 -1 -27 0
-29 -1 0
-29 6 0
29 1 -6 0
-30 -28 0
-30 -29 0
30 28 29 0
-31 5 0
-31 -19 0
31 -5 19 0
-32 -20 0
-32 -31 0
32 20 31 0
-33 1 0
-33 32 0
33 -1 -32 0
-34 -1 0
-34 5 0
34 1 -5 0
-35 -33 0
-35 -34 0
35 33 34 0
-36 4 0
-36 -18 0
36 -4 18 0
-37 -19 0
-37 -36 0
37 19 36 0
-38 1 0
-38 37 0
38 -1 -37 0
-39 -1 0
-39 4 0
39 1 -4 0
-40 -38 0
-40 -39 0
40 38 39 0
-41 2 0
-41 3 0
41 -2 -3 0
-42 -18 0
-42 -41 0
42 18 41 0
-43 1 0
-43 42 0
43 -1 -42 0
-44 -1 0
-44 3 0
44 1 -3 0
-45 -43 0
-45 -44 0
45 43 44 0
-46 -7 0
-46 -12 0
46 7 12 0
-47 -11 0
-47 46 0
47 11 -46 0
-48 -10 0
-48 47 0
48 10 -47 0
-49 -9 0
-49 48 0
49 9 -48 0
-50 -8 0
-50 49 0
50 8 -49 0
-51 8 0
-51 -49 0
51 -8 49 0
-52 -50 0
-52 -51 0
52 50 51 0
-53 8 0
-53 52 0
53 -8 -52 0
-54 2 0
-54 -53 0
54 -2 53 0
-55 45 0
-55 -54 0
55 -45 54 0
-56 40 0
-56 55 0
56 -40 -55 0
-57 35 0
-57 56 0
57 -35 -56 0
-58 30 0
-58 57 0
58 -30 -57 0
-59 -25 0
-59 58 0
59 25 -58 0
-60 -45 0
-60 54 0
60 45 -54 0
-61 -55 0
-61 -60 0
61 55 60 0
-62 59 0
-62 61 0
62 -59 -61 0
-63 9 0
-63 -48 0
63 -9 48 0
-64 -49 0
-64 -63 0
64 49 63 0
-65 8 0
-65 64 0
65 -8 -64 0
-66 -8 0
-66 9 0
66 8 -9 0
-67 -65 0
-67 -66 0
67 65 66 0
-68 2 0
-68 67 0
68 -2 -67 0
-69 45 0
-69 -68 0
69 -45 68 0
-70 2 0
-70 59 0
70 -2 -59 0
-71 -53 0
-71 -70 0
71 53 70 0
-72 53 0
-72 70 0
72 -53 -70 0
-73 -71 0
-73 -72 0
73 71 72 0
-74 -45 0
-74 68 0
74 45 -68 0
-75 73 0
-75 -74 0
75 -73 74 0
-76 -69 0
-76 -75 0
76 69 75 0
-77 40 0
-77 -76 0
77 -40 76 0
-78 -40 0
-78 76 0
78 40 -76 0
-79 62 0
-79 -78 0
79 -62 78 0
-80 -77 0
-80 -79 0
80 77 79 0
-81 35 0
-81 -80 0
81 -35 80 0
-82 -40 0
-82 -55 0
82 40 55 0
-83 -56 0
-83 -82 0
83 56 82 0
-84 59 0
-84 83 0
84 -59 -83 0
-85 -35 0
-85 80 0
85 35 -80 0
-86 84 0
-86 -85 0
86 -84 85 0
-87 -81 0
-87 -86 0
87 81 86 0
-88 30 0
-88 -87 0
88 -30 87 0
-89 -35 0
-89 -56 0
89 35 56 0
-90 -57 0
-90 -89 0
90 57 89 0
-91 59 0
-91 90 0
91 -59 -90 0
-92 -30 0
-92 87 0
92 30 -87 0
-93 91 0
-93 -92 0
93 -91 92 0
-94 -88 0
-94 -93 0
94 88 93 0
-95 -25 0
-95 -94 0
95 25 94 0
-96 -77 0
-96 -78 0
96 77 78 0
-97 95 0
-97 96 0
97 -95 -96 0
-98 -62 0
-98 -97 0
98 62 97 0
-99 62 0
-99 97 0
99 -62 -97 0
-100 -98 0
-100 -99 0
100 98 99 0
-101 10 0
-101 -47 0
101 -10 47 0
-102 -48 0
-102 -101 0
102 48 101 0
-103 8 0
-103 102 0
103 -8 -102 0
-104 -8 0
-104 10 0
104 8 -10 0
-105 -103 0
-105 -104 0
105 103 104 0
-106 2 0
-106 105 0
106 -2 -105 0
-107 45 0
-107 -106 0
107 -45 106 0
-108 2 0
-108 95 0
108 -2 -95 0
-109 67 0
-109 -108 0
109 -67 108 0
-110 -67 0
-110 108 0
110 67 -108 0
-111 -109 0
-111 -110 0
111 109 110 0
-112 -45 0
-112 106 0
112 45 -106 0
-113 111 0
-113 -112 0
113 -111 112 0
-114 -107 0
-114 -113 0
114 107 113 0
-115 40 0
-115 -114 0
115 -40 114 0
-116 -69 0
-116 -74 0
116 69 74 0
-117 95 0
-117 116 0
117 -95 -116 0
-118 -73 0
-118 -117 0
118 73 117 0
-119 73 0
-119 117 0
119 -73 -117 0
-120 -118 0
-120 -119 0
120 118 119 0
-121 -40 0
-121 114 0
121 40 -114 0
-122 120 0
-122 -121 0
122 -120 121 0
-123 -115 0
-123 -122 0
123 115 122 0
-124 35 0
-124 -123 0
124 -35 123 0
-125 -35 0
-125 123 0
125 35 -123 0
-126 100 0
-126 -125 0
126 -100 125 0
-127 -124 0
-127 -126 0
127 124 126 0
-128 30 0
-128 -127 0
128 -30 127 0
-129 -81 0
-129 -85 0
129 81 85 0
-130 95 0
-130 129 0
130 -95 -129 0
-131 -84 0
-131 -130 0
131 84 130 0
-132 84 0
-132 130 0
132 -84 -130 0
-133 -131 0
-133 -132 0
133 131 132 0
-134 -30 0
-134 127 0
134 30 -127 0
-135 133 0
-135 -134 0
135 -133 134 0
-136 -128 0
-136 -135 0
136 128 135 0
-137 -25 0
-137 -136 0
137 25 136 0
-138 -88 0
-138 -92 0
138 88 92 0
-139 95 0
-139 138 0
139 -95 -138 0
-140 -91 0
-140 -139 0
140 91 139 0
-141 91 0
-141 139 0
141 -91 -139 0
-142 -140 0
-142 -141 0
142 140 141 0
-143 25 0
-143 136 0
143 -25 -136 0
-144 142 0
-144 -143 0
144 -142 143 0
-145 -137 0
-145 -144 0
145 137 144 0
-146 -124 0
-146 -125 0
146 124 125 0
-147 -145 0
-147 146 0
147 145 -146 0
-148 -100 0
-148 -147 0
148 100 147 0
-149 100 0
-149 147 0
149 -100 -147 0
-150 -148 0
-150 -149 0
150 148 149 0
-151 -137 0
-151 -143 0
151 137 143 0
-152 142 0
-152 -151 0
152 -142 151 0
-153 11 0
-153 -46 0
153 -11 46 0
-154 -47 0
-154 -153 0
154 47 153 0
-155 8 0
-155 154 0
155 -8 -154 0
-156 -8 0
-156 11 0
156 8 -11 0
-157 -155 0
-157 -156 0
157 155 156 0
-158 2 0
-158 157 0
158 -2 -157 0
-159 45 0
-159 -158 0
159 -45 158 0
-160 2 0
-160 -145 0
160 -2 145 0
-161 105 0
-161 -160 0
161 -105 160 0
-162 -105 0
-162 160 0
162 105 -160 0
-163 -161 0
-163 -162 0
163 161 162 0
-164 -45 0
-164 158 0
164 45 -158 0
-165 163 0
-165 -164 0
165 -163 164 0
-166 -159 0
-166 -165 0
166 159 165 0
-167 40 0
-167 -166 0
167 -40 166 0
-168 -107 0
-168 -112 0
168 107 112 0
-169 -145 0
-169 168 0
169 145 -168 0
-170 -111 0
-170 -169 0
170 111 169 0
-171 111 0
-171 169 0
171 -111 -169 0
-172 -170 0
-172 -171 0
172 170 171 0
-173 -40 0
-173 166 0
173 40 -166 0
-174 172 0
-174 -173 0
174 -172 173 0
-175 -167 0
-175 -174 0
175 167 174 0
-176 35 0
-176 -175 0
176 -35 175 0
-177 -115 0
-177 -121 0
177 115 121 0
-178 -145 0
-178 177 0
178 145 -177 0
-179 -120 0
-179 -178 0
179 120 178 0
-180 120 0
-180 178 0
180 -120 -178 0
-181 -179 0
-181 -180 0
181 179 180 0
-182 -35 0
-182 175 0
182 35 -175 0
-183 181 0
-183 -182 0
183 -181 182 0
-184 -176 0
-184 -183 0
184 176 183 0
-185 30 0
-185 -184 0
185 -30 184 0
-186 -30 0
-186 184 0
186 30 -184 0
-187 150 0
-187 -186 0
187 -150 186 0
-188 -185 0
-188 -187 0
188 185 187 0
-189 -25 0
-189 -188 0
189 25 188 0
-190 -128 0
-190 -134 0
190 128 134 0
-191 -145 0
-191 190 0
191 145 -190 0
-192 -133 0
-192 -191 0
192 133 191 0
-193 133 0
-193 191 0
193 -133 -191 0
-194 -192 0
-194 -193 0
194 192 193 0
-195 25 0
-195 188 0
195 -25 -188 0
-196 194 0
-196 -195 0
196 -194 195 0
-197 -189 0
-197 -196 0
197 189 196 0
-198 -152 0
-198 197 0
198 152 -197 0
-199 -185 0
-199 -186 0
199 185 186 0
-200 -198 0
-200 199 0
200 198 -199 0
-201 -150 0
-201 -200 0
201 150 200 0
-202 150 0
-202 200 0
202 -150 -200 0
-203 -201 0
-203 -202 0
203 201 202 0
-204 -189 0
-204 -195 0
204 189 195 0
-205 -198 0
-205 204 0
205 198 -204 0
-206 -194 0
-206 -205 0
206 194 205 0
-207 194 0
-207 205 0
207 -194 -205 0
-208 -206 0
-208 -207 0
208 206 207 0
-209 7 0
-209 12 0
209 -7 -12 0
-210 -46 0
-210 -209 0
210 46 209 0
-211 8 0
-211 210 0
211 -8 -210 0
-212 -8 0
-212 12 0
212 8 -12 0
-213 -211 0
-213 -212 0
213 211 212 0
-214 2 0
-214 213 0
214 -2 -213 0
-215 45 0
-215 -214 0
215 -45 214 0
-216 2 0
-216 -198 0
216 -2 198 0
-217 157 0
-217 -216 0
217 -157 216 0
-218 -157 0
-218 216 0
218 157 -216 0
-219 -217 0
-219 -218 0
219 217 218 0
-220 -45 0
-220 214 0
220 45 -214 0
-221 219 0
-221 -220 0
221 -219 220 0
-222 -215 0
-222 -221 0
222 215 221 0
-223 40 0
-223 -222 0
223 -40 222 0
-224 -159 0
-224 -164 0
224 159 164 0
-225 -198 0
-225 224 0
225 198 -224 0
-226 -163 0
-226 -225 0
226 163 225 0
-227 163 0
-227 225 0
227 -163 -225 0
-228 -226 0
-228 -227 0
228 226 227 0
-229 -40 0
-229 222 0
229 40 -222 0
-230 228 0
-230 -229 0
230 -228 229 0
-231 -223 0
-231 -230 0
231 223 230 0
-232 35 0
-232 -231 0
232 -35 231 0
-233 -167 0
-233 -173 0
233 167 173 0
-234 -198 0
-234 233 0
234 198 -233 0
-235 -172 0
-235 -234 0
235 172 234 0
-236 172 0
-236 234 0
236 -172 -234 0
-237 -235 0
-237 -236 0
237 235 236 0
-238 -35 0
-238 231 0
238 35 -231 0
-239 237 0
-239 -238 0
239 -237 238 0
-240 -232 0
-240 -239 0
240 232 239 0
-241 30 0
-241 -240 0
241 -30 240 0
-242 -176 0
-242 -182 0
242 176 182 0
-243 -198 0
-243 242 0
243 198 -242 0
-244 -181 0
-244 -243 0
244 181 243 0
-245 181 0
-245 243 0
245 -181 -243 0
-246 -244 0
-246 -245 0
246 244 245 0
-247 -30 0
-247 240 0
247 30 -240 0
-248 246 0
-248 -247 0
248 -246 247 0
-249 -241 0
-249 -248 0
249 241 248 0
-250 -25 0
-250 -249 0
250 25 249 0
-251 25 0
-251 249 0
251 -25 -249 0
-252 203 0
-252 -251 0
252 -203 251 0
-253 -250 0
-253 -252 0
253 250 252 0
-254 -208 0
-254 253 0
254 208 -253 0
-255 -250 0
-255 -251 0
255 250 251 0
-256 -254 0
-256 255 0
256 254 -255 0
-257 -203 0
-257 -256 0
257 203 256 0
-258 203 0
-258 256 0
258 -203 -256 0
-259 -257 0
-259 -258 0
259 257 258 0
-260 2 0
-260 -7 0
260 -2 7 0
-261 45 0
-261 -260 0
261 -45 260 0
-262 2 0
-262 -254 0
262 -2 254 0
-263 213 0
-263 -262 0
263 -213 262 0
-264 -213 0
-264 262 0
264 213 -262 0
-265 -263 0
-265 -264 0
265 263 264 0
-266 -45 0
-266 260 0
266 45 -260 0
-267 265 0
-267 -266 0
267 -265 266 0
-268 -261 0
-268 -267 0
268 261 267 0
-269 40 0
-269 -268 0
269 -40 268 0
-270 -215 0
-270 -220 0
270 215 220 0
-271 -254 0
-271 270 0
271 254 -270 0
-272 -219 0
-272 -271 0
272 219 271 0
-273 219 0
-273 271 0
273 -219 -271 0
-274 -272 0
-274 -273 0
274 272 273 0
-275 -40 0
-275 268 0
275 40 -268 0
-276 274 0
-276 -275 0
276 -274 275 0
-277 -269 0
-277 -276 0
277 269 276 0
-278 35 0
-278 -277 0
278 -35 277 0
-279 -223 0
-279 -229 0
279 223 229 0
-280 -254 0
-280 279 0
280 254 -279 0
-281 -228 0
-281 -280 0
281 228 280 0
-282 228 0
-282 280 0
282 -228 -280 0
-283 -281 0
-283 -282 0
283 281 282 0
-284 -35 0
-284 277 0
284 35 -277 0
-285 283 0
-285 -284 0
285 -283 284 0
-286 -278 0
-286 -285 0
286 278 285 0
-287 30 0
-287 -286 0
287 -30 286 0
-288 -232 0
-288 -238 0
288 232 238 0
-289 -254 0
-289 288 0
289 254 -288 0
-290 -237 0
-290 -289 0
290 237 289 0
-291 237 0
-291 289 0
291 -237 -289 0
-292 -290 0
-292 -291 0
292 290 291 0
-293 -30 0
-293 286 0
293 30 -286 0
-294 292 0
-294 -293 0
294 -292 293 0
-295 -287 0
-295 -294 0
295 287 294 0
-296 -25 0
-296 -295 0
296 25 295 0
-297 -241 0
-297 -247 0
297 241 247 0
-298 -254 0
-298 297 0
298 254 -297 0
-299 -246 0
-299 -298 0
299 246 298 0
-300 246 0
-300 298 0
300 -246 -298 0
-301 -299 0
-301 -300 0
301 299 300 0
-302 25 0
-302 295 0
302 -25 -295 0
-303 301 0
-303 -302 0
303 -301 302 0
-304 -296 0
-304 -303 0
304 296 303 0
-305 -259 0
-305 304 0
305 259 -304 0
-306 2 0
-306 -305 0
306 -2 305 0
-307 7 0
-307 306 0
307 -7 -306 0
-308 -7 0
-308 -306 0
308 7 306 0
-309 -307 0
-309 -308 0
309 307 308 0
310 -2 309 0
-311 3 0
-311 -305 0
311 -3 305 0
-312 -1 0
-312 -8 0
312 1 8 0
-313 1 0
-313 8 0
313 -1 -8 0
-314 -312 0
-314 -313 0
314 312 313 0
-315 254 0
-315 305 0
315 -254 -305 0
-316 -254 0
-316 -305 0
316 254 305 0
-317 -315 0
-317 -316 0
317 315 316 0
-318 314 0
-318 317 0
318 -314 -317 0
-319 -254 0
-319 -314 0
319 254 314 0
-320 -318 0
-320 -319 0
320 318 319 0
-321 2 0
-321 -320 0
321 -2 320 0
-322 311 0
-322 321 0
322 -311 -321 0
-323 4 0
-323 -305 0
323 -4 305 0
-324 3 0
-324 -320 0
324 -3 320 0
-325 323 0
-325 324 0
325 -323 -324 0
-326 -323 0
-326 -324 0
326 323 324 0
-327 -325 0
-327 -326 0
327 325 326 0
-328 322 0
-328 327 0
328 -322 -327 0
-329 -322 0
-329 -327 0
329 322 327 0
-330 -328 0
-330 -329 0
330 328 329 0
-331 198 0
-331 315 0
331 -198 -315 0
-332 -198 0
-332 -315 0
332 198 315 0
-333 -331 0
-333 -332 0
333 331 332 0
-334 314 0
-334 333 0
334 -314 -333 0
-335 -198 0
-335 -314 0
335 198 314 0
-336 -334 0
-336 -335 0
336 334 335 0
-337 2 0
-337 -336 0
337 -2 336 0
-338 330 0
-338 337 0
338 -330 -337 0
-339 -325 0
-339 -328 0
339 325 328 0
-340 5 0
-340 -305 0
340 -5 305 0
-341 4 0
-341 -320 0
341 -4 320 0
-342 340 0
-342 341 0
342 -340 -341 0
-343 -340 0
-343 -341 0
343 340 341 0
-344 -342 0
-344 -343 0
344 342 343 0
-345 -339 0
-345 344 0
345 339 -344 0
-346 339 0
-346 -344 0
346 -339 344 0
-347 -345 0
-347 -346 0
347 345 346 0
-348 3 0
-348 -336 0
348 -3 336 0
-349 347 0
-349 348 0
349 -347 -348 0
-350 -347 0
-350 -348 0
350 347 348 0
-351 -349 0
-351 -350 0
351 349 350 0
-352 338 0
-352 351 0
352 -338 -351 0
-353 -338 0
-353 -351 0
353 338 351 0
-354 -352 0
-354 -353 0
354 352 353 0
-355 145 0
-355 331 0
355 -145 -331 0
-356 -145 0
-356 -331 0
356 145 331 0
-357 -355 0
-357 -356 0
357 355 356 0
-358 314 0
-358 357 0
358 -314 -357 0
-359 -145 0
-359 -314 0
359 145 314 0
-360 -358 0
-360 -359 0
360 358 359 0
-361 2 0
-361 -360 0
361 -2 360 0
-362 354 0
-362 361 0
362 -354 -361 0
-363 -349 0
-363 -352 0
363 349 352 0
-364 -342 0
-364 -345 0
364 342 345 0
-365 6 0
-365 -305 0
365 -6 305 0
-366 5 0
-366 -320 0
366 -5 320 0
-367 365 0
-367 366 0
367 -365 -366 0
-368 -365 0
-368 -366 0
368 365 366 0
-369 -367 0
-369 -368 0
369 367 368 0
-370 -364 0
-370 369 0
370 364 -369 0
-371 364 0
-371 -369 0
371 -364 369 0
-372 -370 0
-372 -371 0
372 370 371 0
-373 4 0
-373 -336 0
373 -4 336 0
-374 372 0
-374 373 0
374 -372 -373 0
-375 -372 0
-375 -373 0
375 372 373 0
-376 -374 0
-376 -375 0
376 374 375 0
-377 -363 0
-377 376 0
377 363 -376 0
-378 363 0
-378 -376 0
378 -363 376 0
-379 -377 0
-379 -378 0
379 377 378 0
-380 3 0
-380 -360 0
380 -3 360 0
-381 379 0
-381 380 0
381 -379 -380 0
-382 -379 0
-382 -380 0
382 379 380 0
-383 -381 0
-383 -382 0
383 381 382 0
-384 362 0
-384 383 0
384 -362 -383 0
-385 -362 0
-385 -383 0
385 362 383 0
-386 -384 0
-386 -385 0
386 384 385 0
-387 -95 0
-387 355 0
387 95 -355 0
-388 95 0
-388 -355 0
388 -95 355 0
-389 -387 0
-389 -388 0
389 387 388 0
-390 314 0
-390 389 0
390 -314 -389 0
-391 95 0
-391 -314 0
391 -95 314 0
-392 -390 0
-392 -391 0
392 390 391 0
-393 2 0
-393 -392 0
393 -2 392 0
-394 386 0
-394 393 0
394 -386 -393 0
-395 -386 0
-395 -393 0
395 386 393 0
-396 -394 0
-396 -395 0
396 394 395 0
-397 -354 0
-397 -361 0
397 354 361 0
-398 -362 0
-398 -397 0
398 362 397 0
-399 -330 0
-399 -337 0
399 330 337 0
-400 -338 0
-400 -399 0
400 338 399 0
-401 -311 0
-401 -321 0
401 311 321 0
-402 -322 0
-402 -401 0
402 322 401 0
-403 -306 0
-403 -402 0
403 306 402 0
-404 -400 0
-404 403 0
404 400 -403 0
-405 -398 0
-405 404 0
405 398 -404 0
-406 -396 0
-406 405 0
406 396 -405 0
-407 396 0
-407 -405 0
407 -396 405 0
-408 -406 0
-408 -407 0
408 406 407 0
-409 9 0
-409 408 0
409 -9 -408 0
-410 398 0
-410 -404 0
410 -398 404 0
-411 -405 0
-411 -410 0
411 405 410 0
-412 10 0
-412 411 0
412 -10 -411 0
-413 400 0
-413 -403 0
413 -400 403 0
-414 -404 0
-414 -413 0
414 404 413 0
-415 11 0
-415 414 0
415 -11 -414 0
-416 306 0
-416 402 0
416 -306 -402 0
-417 -403 0
-417 -416 0
417 403 416 0
-418 12 0
-418 417 0
418 -12 -417 0
-419 -12 0
-419 -417 0
419 12 417 0
-420 -418 0
-420 -419 0
420 418 419 0
-421 307 0
-421 420 0
421 -307 -420 0
-422 -418 0
-422 -421 0
422 418 421 0
-423 -11 0
-423 -414 0
423 11 414 0
-424 -415 0
-424 -423 0
424 415 423 0
-425 -422 0
-425 424 0
425 422 -424 0
-426 -415 0
-426 -425 0
426 415 425 0
-427 -10 0
-427 -411 0
427 10 411 0
-428 -412 0
-428 -427 0
428 412 427 0
-429 -426 0
-429 428 0
429 426 -428 0
-430 -412 0
-430 -429 0
430 412 429 0
-431 -9 0
-431 -408 0
431 9 408 0
-432 -409 0
-432 -431 0
432 409 431 0
-433 -430 0
-433 432 0
433 430 -432 0
-434 -409 0
-434 -433 0
434 409 433 0
-435 -381 0
-435 -384 0
435 381 384 0
-436 -374 0
-436 -377 0
436 374 377 0
-437 -367 0
-437 -370 0
437 367 370 0
-438 1 0
-438 -305 0
438 -1 305 0
-439 6 0
-439 -320 0
439 -6 320 0
-440 438 0
-440 439 0
440 -438 -439 0
-441 -438 0
-441 -439 0
441 438 439 0
-442 -440 0
-442 -441 0
442 440 441 0
-443 -437 0
-443 442 0
443 437 -442 0
-444 437 0
-444 -442 0
444 -437 442 0
-445 -443 0
-445 -444 0
445 443 444 0
-446 5 0
-446 -336 0
446 -5 336 0
-447 445 0
-447 446 0
447 -445 -446 0
-448 -445 0
-448 -446 0
448 445 446 0
-449 -447 0
-449 -448 0
449 447 448 0
-450 -436 0
-450 449 0
450 436 -449 0
-451 436 0
-451 -449 0
451 -436 449 0
-452 -450 0
-452 -451 0
452 450 451 0
-453 4 0
-453 -360 0
453 -4 360 0
-454 452 0
-454 453 0
454 -452 -453 0
-455 -452 0
-455 -453 0
455 452 453 0
-456 -454 0
-456 -455 0
456 454 455 0
-457 -435 0
-457 456 0
457 435 -456 0
-458 435 0
-458 -456 0
458 -435 456 0
-459 -457 0
-459 -458 0
459 457 458 0
-460 3 0
-460 -392 0
460 -3 392 0
-461 459 0
-461 460 0
461 -459 -460 0
-462 -459 0
-462 -460 0
462 459 460 0
-463 -461 0
-463 -462 0
463 461 462 0
-464 394 0
-464 463 0
464 -394 -463 0
-465 -394 0
-465 -463 0
465 394 463 0
-466 -464 0
-466 -465 0
466 464 465 0
-467 -59 0
-467 387 0
467 59 -387 0
-468 59 0
-468 -387 0
468 -59 387 0
-469 -467 0
-469 -468 0
469 467 468 0
-470 314 0
-470 469 0
470 -314 -469 0
-471 59 0
-471 -314 0
471 -59 314 0
-472 -470 0
-472 -471 0
472 470 471 0
-473 2 0
-473 -472 0
473 -2 472 0
-474 466 0
-474 473 0
474 -466 -473 0
-475 -466 0
-475 -473 0
475 466 473 0
-476 -474 0
-476 -475 0
476 474 475 0
-477 406 0
-477 -476 0
477 -406 476 0
-478 -406 0
-478 476 0
478 406 -476 0
-479 -477 0
-479 -478 0
479 477 478 0
-480 8 0
-480 479 0
480 -8 -479 0
-481 -8 0
-481 -479 0
481 8 479 0
-482 -480 0
-482 -481 0
482 480 481 0
-483 -434 0
-483 482 0
483 434 -482 0
-484 434 0
-484 -482 0
484 -434 482 0
-485 -483 0
-485 -484 0
485 483 484 0
-486 -307 0
-486 -420 0
486 307 420 0
-487 -421 0
-487 -486 0
487 421 486 0
-488 -309 0
-488 -487 0
488 309 487 0
489 -309 -487 0
-490 -488 0
-490 -489 0
-491 485 0
-491 490 0
-492 -485 0
-492 487 0
493 491 492 0
-494 45 0
-494 -493 0
495 -310 494 0
496 45 -493 0
-497 -495 0
-497 -496 0
-498 422 0
-498 -424 0
498 -422 424 0
-499 -425 0
-499 -498 0
499 425 498 0
-500 488 0
-500 -499 0
500 -488 499 0
501 488 -499 0
-502 -500 0
-502 -501 0
-503 485 0
-503 502 0
-504 -485 0
-504 499 0
505 503 504 0
-506 40 0
-506 -505 0
507 497 506 0
508 40 -505 0
-509 -507 0
-509 -508 0
-510 426 0
-510 -428 0
510 -426 428 0
-511 -429 0
-511 -510 0
511 429 510 0
-512 500 0
-512 -511 0
512 -500 511 0
513 500 -511 0
-514 -512 0
-514 -513 0
-515 485 0
-515 514 0
-516 -485 0
-516 511 0
517 515 516 0
-518 35 0
-518 -517 0
519 509 518 0
520 35 -517 0
-521 -519 0
-521 -520 0
-522 430 0
-522 -432 0
522 -430 432 0
-523 -433 0
-523 -522 0
523 433 522 0
-524 512 0
-524 -523 0
524 -512 523 0
525 512 -523 0
-526 -524 0
-526 -525 0
-527 485 0
-527 526 0
-528 -485 0
-528 523 0
529 527 528 0
-530 30 0
-530 -529 0
531 521 530 0
532 30 -529 0
-533 -531 0
-533 -532 0
534 485 -524 0
535 -485 524 0
-536 -534 0
-536 -535 0
-537 485 0
-537 536 0
-538 -25 0
-538 537 0
539 533 538 0
540 -25 537 0
-541 -539 0
-541 -540 0
-542 -17 0
-542 541 0
542 0
